db/data/25158353220182224021748227000316891059.z3.out
sat
-------------------
3.956554267
